% File represents an instance of a Composite Structure problem to be solved by a CP framework
% Created on 2025-03-26 10:41:24.959
T = 58;
n = 16;
m = 24;
edges = [(2, 1),
(5, 6),
(10, 9),
(14, 13),
(2, 3),
(7, 6),
(11, 10),
(15, 14),
(4, 3),
(8, 7),
(12, 11),
(16, 15),
(5, 1),
(5, 9),
(9, 13),
(2, 6),
(10, 6),
(14, 10),
(7, 3),
(11, 7),
(15, 11),
(8, 4),
(12, 8),
(16, 12)];
counts = [|18, 10, 18, 2,
|18, 12, 18, 2,
|16, 12, 16, 2,
|16, 14, 16, 2,
|18, 12, 18, 2,
|16, 10, 16, 2,
|16, 14, 16, 2,
|18, 14, 18, 2,
|18, 10, 18, 2,
|18, 12, 18, 2,
|18, 14, 18, 4,
|18, 14, 18, 6,
|18, 8, 18, 2,
|18, 14, 18, 2,
|18, 14, 18, 6,
|18, 16, 18, 6|];
